*************************************************************

   NEOS Server Version 5.0

   Disclaimer:

   This information is provided without any express or
   implied warranty. In particular, there is no warranty
   of any kind concerning the fitness of this
   information  for any particular purpose.
*************************************************************
Job 319213 has finished.
GAMS Rev 239  LEX-LEG 23.9.3 x86_64/Linux              10/10/12 08:28:24 Page 1
G e n e r a l   A l g e b r a i c   M o d e l i n g   S y s t e m
C o m p i l a t i o n




COMPILATION TIME     =        0.124 SECONDS      5 Mb  LEX239-239 Sep 26, 2012
GAMS Rev 239  LEX-LEG 23.9.3 x86_64/Linux              10/10/12 08:28:24 Page 2
G e n e r a l   A l g e b r a i c   M o d e l i n g   S y s t e m
Model Statistics    SOLVE QPncg Using NLP From line 2895


MODEL STATISTICS

BLOCKS OF EQUATIONS           4     SINGLE EQUATIONS          220
BLOCKS OF VARIABLES           2     SINGLE VARIABLES           41
NON ZERO ELEMENTS         7,241     NON LINEAR N-Z          4,000
DERIVATIVE POOL              10     CONSTANT POOL          28,740
CODE LENGTH             201,416


GENERATION TIME      =        0.161 SECONDS      9 Mb  LEX239-239 Sep 26, 2012


EXECUTION TIME       =        0.161 SECONDS      9 Mb  LEX239-239 Sep 26, 2012
GAMS Rev 239  LEX-LEG 23.9.3 x86_64/Linux              10/10/12 08:28:24 Page 3
G e n e r a l   A l g e b r a i c   M o d e l i n g   S y s t e m
Solution Report     SOLVE QPncg Using NLP From line 2895


               S O L V E      S U M M A R Y

     MODEL   QPncg               OBJECTIVE  z
     TYPE    NLP                 DIRECTION  MINIMIZE
     SOLVER  COUENNE             FROM LINE  2895

**** SOLVER STATUS     1 Normal Completion         
**** MODEL STATUS      2 Locally Optimal           
**** OBJECTIVE VALUE               -2.1531

 RESOURCE USAGE, LIMIT       1000.260      1000.000
 ITERATION COUNT, LIMIT     78110    2000000000
 EVALUATION ERRORS              0             0

COIN-OR Couenne  Jul  4, 2012 23.9.3 LEX 35422.35450 LEG x86_64/Linux
NLP0012I 
NLP0014I             1         OPT -2.1530601       46 1.131827
Coin0506I Presolve 2720 (0) rows, 861 (-178) columns and 37785 (-178) elements
Clp0006I 0  Obj -2.1527448 Primal inf 58.382021 (1) Dual inf 3.6873419 (1)
Clp0006I 129  Obj -63.996915 Primal inf 28426.63 (466)
Clp0006I 258  Obj -63.996915 Primal inf 20850.182 (597)
Clp0006I 387  Obj -63.996915 Primal inf 147866.15 (670)
Clp0006I 516  Obj -56.838499 Primal inf 3487.2397 (619)
Clp0006I 645  Obj -56.838499 Primal inf 16809.112 (595)
Clp0006I 774  Obj -56.838499 Primal inf 613345.96 (615)
Clp0006I 903  Obj -56.741575 Primal inf 23972606 (603)
Clp0006I 1032  Obj -56.000366 Primal inf 36028.711 (556)
Clp0006I 1161  Obj -44.734031 Primal inf 78759.047 (693)
Clp0006I 1290  Obj -32.374167 Primal inf 46991.54 (642)
Clp0006I 1419  Obj -23.087265 Primal inf 110686.07 (602)
Clp0006I 1548  Obj -23.087047 Primal inf 50828.439 (558)
Clp0006I 1677  Obj -22.598907 Primal inf 41029.801 (461)
Clp0006I 1806  Obj -15.115684 Primal inf 14041.405 (380)
Clp0006I 1935  Obj -11.247774 Primal inf 20350.43 (398)
Clp0006I 2064  Obj -6.2880639 Primal inf 30857.594 (307)
Clp0006I 2193  Obj -6.2879462 Primal inf 8781.2603 (287)
Clp0006I 2322  Obj -5.9253765 Primal inf 20463.365 (365)
Clp0006I 2451  Obj -5.9253538 Primal inf 17933.823 (332)
Clp0006I 2580  Obj -4.8994049 Primal inf 4397.3493 (386)
Clp0006I 2709  Obj -4.143763 Primal inf 1207.8771 (229)
Clp0006I 2771  Obj -3.8874064
Clp0000I Optimal - objective value -3.8872959
Clp0032I Optimal objective -3.887295894 - 2771 iterations time 0.692, Presolve 
                                                                           0.01
Clp0000I Optimal - objective value -3.8872959
Cbc0012I Integer solution of -2.1530601 found by Couenne Rounding NLP after 0 i
                                           terations and 0 nodes (0.01 seconds)
NLP0014I             2         OPT -1.8846753       44 0.945856
Clp0000I Optimal - objective value -3.8872959
Cbc0031I 38 added rows had average density of 2
Cbc0013I At root node, 38 cuts changed objective from -3.8872959 to -3.7796142 
                                                                    in 4 passes
Cbc0014I Cut generator 0 (Couenne convexifier cuts) - 62 row cuts average 2.0 e
                                        lements, 1733 column cuts (1771 active)
Cbc0010I After 0 nodes, 1 on tree, -2.1530601 best solution, best possible -3.7
                                                         796142 (24.23 seconds)
Cbc0010I After 100 nodes, 20 on tree, -2.1530601 best solution, best possible -
                                                     2.8985576 (199.91 seconds)
Cbc0010I After 200 nodes, 29 on tree, -2.1530601 best solution, best possible -
                                                     2.6914392 (465.96 seconds)
Cbc0010I After 300 nodes, 33 on tree, -2.1530601 best solution, best possible -
                                                     2.5396867 (474.29 seconds)
Cbc0010I After 400 nodes, 37 on tree, -2.1530601 best solution, best possible -
                                                     2.4102798 (484.48 seconds)
Cbc0010I After 500 nodes, 34 on tree, -2.1530601 best solution, best possible -
                                                     2.3148059 (491.84 seconds)
Cbc0011I Exiting as integer gap of 0.16174578 less than 0 or 10%
Cbc0001I Search completed - best objective -2.153060091190893, took 78110 itera
                                           tions and 501 nodes (491.89 seconds)
Cbc0035I Maximum depth 29, 0 variables fixed on reduced cost


Best solution:   -2.153060e+00   (501 nodes, 1000.26 seconds)
Best possible:   -2.314806e+00
Absolute gap:     1.617458e-01   (absolute tolerance optca: 0)
Relative gap:     6.987445e-02   (relative tolerance optcr: 0.1)

                       LOWER     LEVEL     UPPER    MARGINAL

---- EQU OBJective       .         .         .        1.000      

---- EQU xub  

       LOWER     LEVEL     UPPER    MARGINAL

x1      -INF      0.294     1.000      EPS       
x2      -INF       .        1.000      EPS       
x3      -INF       .        1.000      EPS       
x4      -INF       .        1.000      EPS       
x5      -INF       .        1.000      EPS       
x6      -INF       .        1.000      EPS       
x7      -INF      0.152     1.000      EPS       
x8      -INF      0.498     1.000      EPS       
x9      -INF       .        1.000      EPS       
x10     -INF      0.972     1.000      EPS       
x11     -INF       .        1.000      EPS       
x12     -INF       .        1.000      EPS       
x13     -INF      0.475     1.000      EPS       
x14     -INF       .        1.000      EPS       
x15     -INF       .        1.000      EPS       
x16     -INF       .        1.000      EPS       
x17     -INF       .        1.000      EPS       
x18     -INF       .        1.000      EPS       
x19     -INF       .        1.000      EPS       
x20     -INF       .        1.000      EPS       
x21     -INF       .        1.000      EPS       
x22     -INF       .        1.000      EPS       
x23     -INF       .        1.000      EPS       
x24     -INF       .        1.000      EPS       
x25     -INF       .        1.000      EPS       
x26     -INF       .        1.000      EPS       
x27     -INF       .        1.000      EPS       
x28     -INF       .        1.000      EPS       
x29     -INF       .        1.000      EPS       
x30     -INF  4.247E-11     1.000      EPS       
x31     -INF       .        1.000      EPS       
x32     -INF       .        1.000      EPS       
x33     -INF       .        1.000      EPS       
x34     -INF       .        1.000      EPS       
x35     -INF       .        1.000      EPS       
x36     -INF       .        1.000      EPS       
x37     -INF       .        1.000      EPS       
x38     -INF       .        1.000      EPS       
x39     -INF       .        1.000      EPS       
x40     -INF       .        1.000      EPS       

---- EQU cQ  

        LOWER     LEVEL     UPPER    MARGINAL

qc1     -4.273    -1.597     +INF       EPS       
qc2     -2.723    -0.826     +INF       EPS       
qc3     -2.808     0.372     +INF       EPS       
qc4     -3.491    -0.096     +INF       EPS       
qc5     -1.070    -0.648     +INF       EPS       
qc6     -3.594     0.560     +INF       EPS       
qc7     -4.362     0.926     +INF       EPS       
qc8     -1.733     0.838     +INF       EPS       
qc9     -1.927     0.262     +INF       EPS       
qc10    -2.421     0.522     +INF       EPS       
qc11    -3.554    -0.271     +INF       EPS       
qc12    -4.449    -0.083     +INF       EPS       
qc13    -2.133    -0.303     +INF       EPS       
qc14    -2.372    -0.479     +INF       EPS       
qc15    -4.782    -0.320     +INF       EPS       
qc16    -4.757     0.116     +INF       EPS       
qc17    -2.994     0.964     +INF       EPS       
qc18    -2.270    -0.051     +INF       EPS       
qc19    -2.968    -0.522     +INF       EPS       
qc20    -1.989    -0.719     +INF       EPS       
qc21    -1.956    -1.030     +INF       EPS       
qc22    -3.704    -0.026     +INF       EPS       
qc23    -2.524     1.490     +INF       EPS       
qc24    -1.147     0.459     +INF       EPS       
qc25    -2.985     0.343     +INF       EPS       
qc26    -3.228    -0.043     +INF       EPS       
qc27    -2.188     0.365     +INF       EPS       
qc28    -3.575    -0.139     +INF       EPS       
qc29    -1.824    -1.143     +INF       EPS       
qc30    -4.193    -1.343     +INF       EPS       
qc31    -3.353    -0.600     +INF       EPS       
qc32    -3.408     0.452     +INF       EPS       
qc33    -1.439     0.015     +INF       EPS       
qc34    -3.039     2.333     +INF       EPS       
qc35    -1.868    -1.209     +INF       EPS       
qc36    -2.210    -0.763     +INF       EPS       
qc37    -4.539     0.076     +INF       EPS       
qc38    -4.524     0.004     +INF       EPS       
qc39    -4.003     0.240     +INF       EPS       
qc40    -2.271     0.313     +INF       EPS       
qc41    -4.665    -1.390     +INF       EPS       
qc42    -2.334     1.132     +INF       EPS       
qc43    -1.669    -0.878     +INF       EPS       
qc44    -2.611    -1.051     +INF       EPS       
qc45    -3.121     0.320     +INF       EPS       
qc46    -1.089    -0.436     +INF       EPS       
qc47    -3.309    -0.319     +INF       EPS       
qc48    -3.029     0.332     +INF       EPS       
qc49    -1.754     1.117     +INF       EPS       
qc50    -1.689     0.781     +INF       EPS       
qc51    -2.208    -0.041     +INF       EPS       
qc52    -3.137    -0.112     +INF       EPS       
qc53    -2.843    -0.063     +INF       EPS       
qc54    -2.059     0.780     +INF       EPS       
qc55    -3.923    -0.180     +INF       EPS       
qc56    -1.051     0.771     +INF       EPS       
qc57    -4.970    -0.236     +INF       EPS       
qc58    -1.953     0.143     +INF       EPS       
qc59    -1.750     1.170     +INF       EPS       
qc60    -1.264    -0.136     +INF       EPS       
qc61    -2.290    -0.448     +INF       EPS       
qc62    -4.216     0.151     +INF       EPS       
qc63    -1.530     0.028     +INF       EPS       
qc64    -4.859     0.025     +INF       EPS       
qc65    -3.814    -1.178     +INF       EPS       
qc66    -2.998    -0.709     +INF       EPS       
qc67    -2.413     1.367     +INF       EPS       
qc68    -2.363     0.830     +INF       EPS       
qc69    -2.632     0.828     +INF       EPS       
qc70    -2.773     0.093     +INF       EPS       
qc71    -3.141     1.833     +INF       EPS       
qc72    -1.536    -0.146     +INF       EPS       
qc73    -1.958    -1.081     +INF       EPS       
qc74    -4.053     1.165     +INF       EPS       
qc75    -2.203    -0.675     +INF       EPS       
qc76    -4.513    -0.588     +INF       EPS       
qc77    -1.020     0.049     +INF       EPS       
qc78    -4.106     1.440     +INF       EPS       
qc79    -1.796    -1.796     +INF       EPS       
qc80    -3.488     0.582     +INF       EPS       
qc81    -4.774     0.051     +INF       EPS       
qc82    -2.878     0.607     +INF       EPS       
qc83    -3.544     1.095     +INF       EPS       
qc84    -2.005     0.335     +INF       EPS       
qc85    -1.345     0.575     +INF       EPS       
qc86    -4.531     0.177     +INF       EPS       
qc87    -1.067    -0.083     +INF       EPS       
qc88    -4.683     0.638     +INF       EPS       
qc89    -2.381     1.694     +INF       EPS       
qc90    -4.119    -1.418     +INF       EPS       
qc91    -1.214     0.554     +INF       EPS       
qc92    -4.771     1.026     +INF       EPS       
qc93    -1.939     1.209     +INF       EPS       
qc94    -2.391    -0.080     +INF       EPS       
qc95    -3.116    -0.358     +INF       EPS       
qc96    -4.307    -0.672     +INF       EPS       
qc97    -4.843     0.684     +INF       EPS       
qc98    -2.494    -0.504     +INF       EPS       
qc99    -3.676    -0.793     +INF       EPS       

---- EQU cL  

         LOWER     LEVEL     UPPER    MARGINAL

lin1      -INF      1.483     3.203      EPS       
lin2      -INF      1.429     4.497      EPS       
lin3      -INF      0.841     4.602      EPS       
lin4      -INF      1.919     2.806      EPS       
lin5      -INF      1.282     3.634      EPS       
lin6      -INF      1.138     1.831      EPS       
lin7      -INF      1.265     1.950      EPS       
lin8      -INF      1.161     2.344      EPS       
lin9      -INF      1.405     1.631      EPS       
lin10     -INF      0.579     3.225      EPS       
lin11     -INF      1.718     2.431      EPS       
lin12     -INF      1.270     3.461      EPS       
lin13     -INF      1.610     1.610      EPS       
lin14     -INF      1.419     1.907      EPS       
lin15     -INF      1.439     2.615      EPS       
lin16     -INF      0.703     4.977      EPS       
lin17     -INF      1.975     2.127      EPS       
lin18     -INF      1.144     4.234      EPS       
lin19     -INF      1.765     1.765      EPS       
lin20     -INF      0.945     1.919      EPS       
lin21     -INF      1.526     2.144      EPS       
lin22     -INF      0.620     3.803      EPS       
lin23     -INF      1.349     2.606      EPS       
lin24     -INF      1.102     3.286      EPS       
lin25     -INF      1.246     3.122      EPS       
lin26     -INF      1.250     4.106      EPS       
lin27     -INF      1.265     1.271      EPS       
lin28     -INF      1.759     4.778      EPS       
lin29     -INF      1.306     1.379      EPS       
lin30     -INF      0.994     1.238      EPS       
lin31     -INF      1.075     1.607      EPS       
lin32     -INF      0.759     3.851      EPS       
lin33     -INF      0.492     3.392      EPS       
lin34     -INF      1.458     3.051      EPS       
lin35     -INF      1.530     4.628      EPS       
lin36     -INF      0.838     4.746      EPS       
lin37     -INF      0.973     1.048      EPS       
lin38     -INF      1.032     4.394      EPS       
lin39     -INF      0.872     2.540      EPS       
lin40     -INF      0.712     3.790      EPS       
lin41     -INF      1.792     3.059      EPS       
lin42     -INF      1.339     1.339      EPS       
lin43     -INF      1.542     3.926      EPS       
lin44     -INF      1.336     4.292      EPS       
lin45     -INF      0.804     4.506      EPS       
lin46     -INF      1.366     4.355      EPS       
lin47     -INF      1.087     2.735      EPS       
lin48     -INF      1.061     4.084      EPS       
lin49     -INF      1.548     1.720      EPS       
lin50     -INF      1.185     1.185      EPS       
lin51     -INF      0.926     2.094      EPS       
lin52     -INF      1.269     4.330      EPS       
lin53     -INF      1.404     2.593      EPS       
lin54     -INF      0.845     2.368      EPS       
lin55     -INF      0.798     2.885      EPS       
lin56     -INF      1.501     1.871      EPS       
lin57     -INF      1.337     3.514      EPS       
lin58     -INF      1.602     1.844      EPS       
lin59     -INF      0.570     1.765      EPS       
lin60     -INF      1.450     3.480      EPS       
lin61     -INF      1.182     2.023      EPS       
lin62     -INF      1.161     3.216      EPS       
lin63     -INF      1.170     4.342      EPS       
lin64     -INF      1.171     1.851      EPS       
lin65     -INF      0.675     4.499      EPS       
lin66     -INF      1.288     3.376      EPS       
lin67     -INF      1.803     4.107      EPS       
lin68     -INF      1.311     4.076      EPS       
lin69     -INF      0.671     3.652      EPS       
lin70     -INF      1.342     2.268      EPS       
lin71     -INF      1.780     4.183      EPS       
lin72     -INF      1.634     4.069      EPS       
lin73     -INF      0.684     1.547      EPS       
lin74     -INF      1.498     4.243      EPS       
lin75     -INF      0.901     1.107      EPS       
lin76     -INF      1.041     4.901      EPS       
lin77     -INF      1.277     3.518      EPS       
lin78     -INF      1.135     1.557      EPS       
lin79     -INF      0.769     1.478      EPS       
lin80     -INF      1.369     2.944      EPS       

---- VAR x  

       LOWER     LEVEL     UPPER    MARGINAL

x1       .        0.294     +INF       EPS       
x2       .         .        +INF       EPS       
x3       .         .        +INF       EPS       
x4       .         .        +INF       EPS       
x5       .         .        +INF       EPS       
x6       .         .        +INF       EPS       
x7       .        0.152     +INF       EPS       
x8       .        0.498     +INF       EPS       
x9       .         .        +INF       EPS       
x10      .        0.972     +INF       EPS       
x11      .         .        +INF       EPS       
x12      .         .        +INF       EPS       
x13      .        0.475     +INF       EPS       
x14      .         .        +INF       EPS       
x15      .         .        +INF       EPS       
x16      .         .        +INF       EPS       
x17      .         .        +INF       EPS       
x18      .         .        +INF       EPS       
x19      .         .        +INF       EPS       
x20      .         .        +INF       EPS       
x21      .         .        +INF       EPS       
x22      .         .        +INF       EPS       
x23      .         .        +INF       EPS       
x24      .         .        +INF       EPS       
x25      .         .        +INF       EPS       
x26      .         .        +INF       EPS       
x27      .         .        +INF       EPS       
x28      .         .        +INF       EPS       
x29      .         .        +INF       EPS       
x30      .         .        +INF       EPS       
x31      .         .        +INF       EPS       
x32      .         .        +INF       EPS       
x33      .         .        +INF       EPS       
x34      .         .        +INF       EPS       
x35      .         .        +INF       EPS       
x36      .         .        +INF       EPS       
x37      .         .        +INF       EPS       
x38      .         .        +INF       EPS       
x39      .         .        +INF       EPS       
x40      .         .        +INF       EPS       

                       LOWER     LEVEL     UPPER    MARGINAL

---- VAR z              -INF     -2.153     +INF       .         


**** REPORT SUMMARY :        0     NONOPT
                             0 INFEASIBLE
                             0  UNBOUNDED
                             0     ERRORS


EXECUTION TIME       =        0.001 SECONDS      4 Mb  LEX239-239 Sep 26, 2012


USER: NEOS Server                                    G100907:1412AS-LNX
      University of Wisconsin-Madison                            DC8499
      License for teaching and research at degree granting institutions


**** FILE SUMMARY

Input      /scratch/neos/solver/jobs/319213/MODEL.gms
Output     /scratch/neos/solver/jobs/319213/solve.out
